p td 22 153
3 1
3 2
4 2
5 2
5 4
5 1
6 5
6 1
7 1
7 2
7 6
7 3
8 2
8 7
8 1
8 5
9 8
9 4
9 5
9 6
9 2
9 7
9 1
10 6
10 4
10 3
10 7
10 8
10 9
10 1
11 3
11 7
11 8
11 4
11 6
11 2
11 9
12 9
12 6
12 8
12 4
12 3
13 12
13 2
13 7
13 4
13 8
13 6
13 5
14 2
14 1
14 6
14 5
14 9
14 8
14 10
14 12
14 4
14 7
14 11
15 2
15 14
15 1
15 12
15 8
15 9
15 4
16 7
16 9
16 5
16 14
16 8
16 6
16 2
16 15
16 12
16 13
17 7
17 1
17 14
17 15
17 2
17 9
17 4
17 10
17 11
17 8
17 16
18 12
18 9
18 1
18 14
18 5
18 17
18 4
18 10
18 6
18 15
19 2
19 5
19 18
19 17
19 9
19 16
19 3
19 7
19 13
19 12
20 17
20 13
20 6
20 3
20 7
20 12
20 2
20 15
20 10
20 18
20 5
20 8
21 20
21 12
21 2
21 7
21 6
21 19
21 9
21 4
21 16
21 5
21 18
21 14
21 8
21 10
21 15
21 13
22 9
22 1
22 3
22 4
22 12
22 21
22 8
22 14
22 10
22 18
22 15
22 2
22 17
22 19
22 11
22 13
22 16
